
Gurobi 10.0.1 (win64) logging started Sat Sep  9 15:28:39 2023

Set parameter LogFile to value "results-heuristic-start//log/URT_10_makespan.log"
Gurobi Optimizer version 10.0.1 build v10.0.1rc0 (win64)

CPU model: AMD Ryzen 7 3700X 8-Core Processor, instruction set [SSE2|AVX|AVX2]
Thread count: 8 physical cores, 16 logical processors, using up to 16 threads

Optimize a model with 207 rows, 193 columns and 773 nonzeros
Model fingerprint: 0x5cc5c3e7
Variable types: 24 continuous, 169 integer (168 binary)
Coefficient statistics:
  Matrix range     [1e+00, 1e+06]
  Objective range  [1e+00, 1e+00]
  Bounds range     [1e+00, 1e+00]
  RHS range        [1e+00, 3e+06]

Warning: Completing partial solution with 157 unfixed non-continuous variables out of 169
User MIP start produced solution with objective 830 (0.00s)
Loaded user MIP start with objective 830

Presolve removed 42 rows and 113 columns
Presolve time: 0.00s
Presolved: 165 rows, 80 columns, 704 nonzeros
Variable types: 24 continuous, 56 integer (55 binary)
Found heuristic solution: objective 829.0000000

Root relaxation: objective 3.500000e+01, 31 iterations, 0.00 seconds (0.00 work units)

    Nodes    |    Current Node    |     Objective Bounds      |     Work
 Expl Unexpl |  Obj  Depth IntInf | Incumbent    BestBd   Gap | It/Node Time

     0     0   35.00000    0    8  829.00000   35.00000  95.8%     -    0s
H    0     0                      88.0000000   35.00000  60.2%     -    0s
H    0     0                      85.0000000   35.00000  58.8%     -    0s
H    0     0                      84.0000000   35.00000  58.3%     -    0s
H    0     0                      76.0000000   35.00000  53.9%     -    0s
     0     0   35.00001    0   10   76.00000   35.00001  53.9%     -    0s
     0     0   35.64954    0    9   76.00000   35.64954  53.1%     -    0s
     0     0   36.65527    0    9   76.00000   36.65527  51.8%     -    0s
     0     0   37.00000    0    8   76.00000   37.00000  51.3%     -    0s
H    0     0                      72.0000000   37.00000  48.6%     -    0s
     0     0   37.16737    0   11   72.00000   37.16737  48.4%     -    0s
     0     0   37.34645    0   14   72.00000   37.34645  48.1%     -    0s
     0     0   37.34645    0   14   72.00000   37.34645  48.1%     -    0s
     0     0   37.81166    0   13   72.00000   37.81166  47.5%     -    0s
     0     0   38.00000    0   12   72.00000   38.00000  47.2%     -    0s
     0     0   38.00000    0   13   72.00000   38.00000  47.2%     -    0s
     0     0   38.00000    0   13   72.00000   38.00000  47.2%     -    0s
H    0     0                      71.0000000   38.00000  46.5%     -    0s
H    0     0                      66.0000000   38.00000  42.4%     -    0s
     0     0   38.00000    0   11   66.00000   38.00000  42.4%     -    0s
     0     0   38.00000    0   15   66.00000   38.00000  42.4%     -    0s
     0     0   38.12420    0   13   66.00000   38.12420  42.2%     -    0s
     0     0   38.12871    0   18   66.00000   38.12871  42.2%     -    0s
     0     0   38.12871    0   19   66.00000   38.12871  42.2%     -    0s
     0     0   38.21739    0   10   66.00000   38.21739  42.1%     -    0s
     0     0   38.25000    0   12   66.00000   38.25000  42.0%     -    0s
     0     0   38.25000    0   14   66.00000   38.25000  42.0%     -    0s
     0     0   38.25000    0   16   66.00000   38.25000  42.0%     -    0s
     0     0   38.25000    0   15   66.00000   38.25000  42.0%     -    0s
     0     0   38.25000    0   16   66.00000   38.25000  42.0%     -    0s
     0     0   38.25000    0   16   66.00000   38.25000  42.0%     -    0s
     0     0   38.25000    0   13   66.00000   38.25000  42.0%     -    0s
     0     0   38.25000    0   14   66.00000   38.25000  42.0%     -    0s
     0     0   38.31183    0   11   66.00000   38.31183  42.0%     -    0s
     0     0   38.87599    0   14   66.00000   38.87599  41.1%     -    0s
     0     0   40.00000    0   12   66.00000   40.00000  39.4%     -    0s
     0     0   40.00000    0   10   66.00000   40.00000  39.4%     -    0s
     0     1   40.00000    0   10   66.00000   40.00000  39.4%     -    0s

Cutting planes:
  Learned: 74
  Gomory: 5
  Cover: 2
  Implied bound: 16
  MIR: 50
  Flow cover: 52
  Inf proof: 11
  Relax-and-lift: 1

Explored 4281 nodes (14597 simplex iterations) in 0.91 seconds (0.16 work units)
Thread count was 16 (of 16 available processors)

Solution count 10: 66 66 71 ... 830

Optimal solution found (tolerance 1.00e-04)
Best objective 6.600000000000e+01, best bound 6.600000000000e+01, gap 0.0000%
Warning: constraint name "precedence between 0,2 to 0,0 if x_[j,l,h,z,i]=1" has a space
Warning: constraint name "precedence between 0,2 to 0,0 if x_[j,l,h,z,i]=1" has a space
Warning: default constraint names used to write mps file
